8 965
525 7 482 7 365 7 115 9 940 13
525 7 482 7 365 7 115 9 940 13
525 7 482 7 365 7 115 9 940 13
525 7 504 7 427 11
525 7 504 7 427 11
520 7 441 7 347 7 188 9 17 11 840 15 711 23
520 7 443 10
536 7 513 7 437 11
